WARNING: for repeatability, setting FPU to use double precision
============================[ Problem Statistics ]=============================
|                                                                             |
|  Number of variables:            50                                         |
|  Number of clauses:             218                                         |
|  Parse time:                   0.00 s                                       |
|                                                                             |
============================[ Search Statistics ]==============================
| Conflicts |          ORIGINAL         |          LEARNT          | Progress |
|           |    Vars  Clauses Literals |    Limit  Clauses Lit/Cl |          |
===============================================================================
===============================================================================
restarts              : 1
conflicts             : 56             (38330 /sec)
decisions             : 80             (0.00 % random) (54757 /sec)
propagations          : 806            (551677 /sec)
conflict literals     : 252            (10.00 % deleted)
Memory used           : 20.00 MB
CPU time              : 0.001461 s

SATISFIABLE
